c --- [ banner ] -------------------------------------------------------------
c 
c CaDiCaL Radically Simplified CDCL SAT Solver
c Copyright (c) 2016-2021 A. Biere, M. Fleury, N. Froleyks
c 
c Version 1.5.2 9c38a080b32c28d805e8e6ca21849856b0cda605
c g++ (Ubuntu 7.5.0-3ubuntu1~18.04) 7.5.0 -Wall -Wextra -O3 -DNDEBUG
c Wed Feb 16 23:15:36 EST 2022 Linux fac-vanhoeve01 5.4.0-99-generic x86_64
c 
c --- [ limit ] --------------------------------------------------------------
c 
c setting time limit to 600 seconds real time (due to '-t 600')
c setting conflict limit to 1000000000 conflicts (due to '1000000000')
c 
c --- [ parsing input ] ------------------------------------------------------
c 
c reading DIMACS file from 'ddfwcnfs/wap02a.col_40.cnf'
c opening file to read 'ddfwcnfs/wap02a.col_40.cnf'
c found 'p cnf 98560 4253384' header
c parsed 4253384 clauses in 2.51 seconds process time
c closing file 'ddfwcnfs/wap02a.col_40.cnf'
c after reading 68126656 bytes 65.0 MB
c 
c --- [ options ] ------------------------------------------------------------
c 
c all options are set to their default value
c 
c --- [ solving ] ------------------------------------------------------------
c 
c time measured in process time since initialization
c 
c  seconds   reductions  redundant   irredundant
c          MB    restarts       trail        variables
c           level   conflicts       glue          remaining
c 
c *  2.51 376  0 0   0    0    0  0% 0 4251784 96960 98%
c {  2.55 378  0 0   0    0    0  0% 0 4251784 96960 98%
c -  3.37 378 39 1   0  300  148  4% 36 4251784 96960 98%
c }  3.50 378 40 1   0 1000  634  4% 36 4251784 96960 98%
c [  3.50 378  0 1   0 1000  634  0% 0 4251784 96960 98%
c O  3.50 378 50 1   0 1002  636  4% 28 4251784 96960 98%
c -  5.69 476 48 2   0 1883 1096  4% 35 4251784 96960 98%
c ]  5.79 476 45 2   1 3003 1817  4% 37 4251784 96960 98%
c {  5.79 476 40 2   1 3003 1817  4% 36 4251784 96960 98%
c F  5.79 476 40 2   1 3004 1818  4% 36 4251784 96960 98%
c -  7.37 476 53 3   1 4248 1876  5% 31 4251784 96960 98%
c # 11.03 472 50 3   1 6007 3241  5% 30 4251784 96960 98%
c } 11.12 472 49 3   3 7005 3966  6% 30 4251784 96960 98%
c [ 11.12 472 45 3   3 7005 3966  4% 37 4251784 96960 98%
c - 12.69 472 44 4   4 7404 2930  4% 36 4251784 96960 98%
c I 12.95 472 42 4   5 10008 4701  4% 36 4251784 96960 98%
c s 14.60 488 822 4   6 10911 5337  6% 38 4251784 96960 98%
c e 24.23 488 822 4   6 10911 2842  6% 38 3774349 90415 92%
c s 25.95 505 822 4   6 10911 2831  6% 38 3774349 90415 92%
c ^ 26.81 505 822 4   6 10911 2831  6% 38 3774349 90415 92%
c 
c  seconds     reductions   redundant    irredundant
c          MB      restarts        trail         variables
c            level     conflicts       glue           remaining
c 
c - 28.63 515 1377 5   7 11346 1638  7% 39 3774349 90415 92%
c ] 32.81 544 8568 5   8 15006 4380 22% 47 3774349 90415 92%
c { 32.81 544 49 5   8 15006 4380  6% 30 3774349 90415 92%
c B 32.83 544 50 5   8 15010 4384  6% 30 3774349 90415 92%
c - 34.36 545 67 6 260 15985 3910  6% 31 3774349 90415 92%
c W 36.31 545 75 6 1307 21011 7719  6% 34 3774349 90415 92%
c - 37.86 545 81 7 1349 21397 5222  6% 35 3774349 90415 92%
c - 39.86 545 71 8 1361 27582 6286  6% 35 3774349 90415 92%
c F 39.90 545 71 8 1361 28013 6600  6% 35 3774349 90415 92%
c } 43.83 545 65 8 1361 31007 8628  6% 34 3774349 90415 92%
c [ 43.83 545 8568 8 1361 31007 8628 22% 47 3774349 90415 92%
c s 44.24 545 7448 8 1361 32446 9523 20% 46 3774349 90415 92%
c w 47.42 545 7448 8 1361 32446 9513 20% 46 3774349 90415 92%
c s 52.12 545 7448 8 1361 32446 9267 20% 46 3774349 90415 92%
c ^ 52.90 545 7448 8 1361 32446 9267 20% 46 3774349 90415 92%
c - 54.59 545 6238 9 1363 34541 7738 18% 45 3774349 90415 92%
c B 54.72 545 5590 9 1364 36014 8583 16% 44 3774349 90415 92%
c - 57.54 547 8294 10 1368 42271 8203 26% 64 3774349 90415 92%
c W 59.51 547 7286 10 1368 45016 10161 25% 68 3774349 90415 92%
c - 65.22 547 5777 11 1369 50774 8599 21% 68 3774349 90415 92%
c 
c  seconds     reductions      redundant    irredundant
c          MB       restarts          trail         variables
c            level       conflicts        glue           remaining
c 
c O 65.89 547 6109 11 1370 55021 11951 23% 72 3774349 90415 92%
c - 67.45 547 5190 12 1374 60050 9029 20% 67 3774349 90415 92%
c ] 67.65 547 4755 12 1376 63008 10900 19% 65 3774349 90415 92%
c { 67.65 547 65 12 1376 63008 10900  6% 34 3774349 90415 92%
c s 67.96 547 67 12 1376 64748 12075  6% 33 3774349 90415 92%
c w 70.58 547 67 12 1376 64748 12074  6% 33 3774349 90415 92%
c s 74.94 547 67 12 1376 64748 12052  6% 33 3774349 90415 92%
c ^ 75.62 547 67 12 1376 64748 12052  6% 33 3774349 90415 92%
c B 75.72 547 65 12 1376 66022 12842  6% 33 3774349 90415 92%
c - 77.51 545 64 13 1511 70100 8212  6% 33 3774349 90415 92%
c W 83.15 545 61 13 1668 78028 12635  6% 34 3774349 90415 92%
c - 84.67 545 61 14 1722 80922 8438  6% 34 3774349 90415 92%
c # 85.94 545 60 14 2068 91030 15455  6% 34 3774349 90415 92%
c - 87.61 546 60 15 2078 92517 10314  6% 34 3774349 90415 92%
c - 90.52 546 54 16 2100 104885 10209  6% 34 3774349 90415 92%
c B 94.01 546 54 16 2100 105034 10300  6% 34 3774349 90415 92%
c s 94.87 546 58 16 2766 107819 11400  7% 35 3774349 90415 92%
c w 98.05 546 58 16 2766 107819 11391  7% 35 3774349 90415 92%
c s 102.82 546 58 16 2766 107819 11181  7% 35 3774349 90415 92%
c ^ 103.61 546 58 16 2766 107819 11181  7% 35 3774349 90415 92%
c 
c  seconds    reductions       redundant    irredundant
c           MB     restarts           trail         variables
c            level      conflicts         glue           remaining
c 
c - 106.55 547 78 17 5175 118027 12028  7% 39 3774349 90415 92%
c W 109.54 547 76 17 5175 120037 13291  7% 39 3774349 90415 92%
c } 110.21 547 72 17 5175 127010 18092  7% 39 3774349 90415 92%
c [ 110.21 547 4755 17 5175 127010 18092 19% 65 3774349 90415 92%
c - 112.25 546 4198 18 5177 131941 12565 18% 63 3774349 90415 92%
c B 112.70 546 3781 18 5180 136039 14885 17% 60 3774349 90415 92%
c - 120.11 550 6575 19 5183 146630 14674 25% 78 3774349 90415 92%
c W 124.31 550 6698 19 5184 153043 19939 28% 86 3774349 90415 92%
c s 125.64 550 6223 19 5184 161655 26231 29% 83 3774349 90415 92%
c w 128.90 550 6223 19 5184 161655 26230 29% 83 3774349 90415 92%
c s 133.82 550 6223 19 5184 161655 26227 29% 83 3774349 90415 92%
c ^ 134.65 550 6223 19 5184 161655 26227 29% 83 3774349 90415 92%
c - 136.29 551 6175 20 5184 162091 16108 29% 83 3774349 90415 92%
c I 137.50 551 5383 20 5187 171044 22935 26% 81 3774349 90415 92%
c - 140.14 550 5318 21 5191 178325 16941 26% 85 3774349 90415 92%
c B 146.86 550 5054 21 5198 190045 26651 26% 89 3774349 90415 92%
c - 149.26 552 4681 22 5199 195333 18830 25% 87 3774349 90415 92%
c W 154.44 552 3813 22 5206 210046 29362 22% 80 3774349 90415 92%
c - 156.25 548 3657 23 5206 213115 17814 22% 79 3774349 90415 92%
c s 162.16 548 3296 23 5214 226258 27074 20% 74 3774349 90415 92%
c 
c  seconds      reductions       redundant    irredundant
c           MB       restarts           trail         variables
c             level       conflicts         glue           remaining
c 
c w 165.43 548 3296 23 5214 226258 27074 20% 74 3774349 90415 92%
c s 170.53 548 3296 23 5214 226258 26753 20% 74 3774349 90415 92%
c O 172.35 548 3111 23 5214 231048 30117 20% 74 3774349 90415 92%
c - 174.02 549 3087 24 5214 231668 18800 20% 74 3774349 90415 92%
c - 178.01 549 2437 25 5216 250995 19084 18% 71 3774349 90415 92%
c B 178.33 549 2378 25 5216 253052 20603 17% 71 3774349 90415 92%
c ] 178.99 549 3019 25 5216 255012 22280 18% 75 3774349 90415 92%
c { 178.99 549 72 25 5216 255012 22280  7% 39 3774349 90415 92%
c - 181.98 549 65 26 5237 271097 19862  7% 38 3774349 90415 92%
c F 186.23 549 63 26 5237 276057 23245  7% 38 3774349 90415 92%
c - 189.38 548 62 27 5237 291972 22776  6% 36 3774349 90415 92%
c B 190.38 548 61 27 5237 300059 29704  6% 35 3774349 90415 92%
c - 193.35 549 61 28 5508 313618 24429  6% 36 3774349 90415 92%
c W 199.29 549 60 28 5852 325060 33527  6% 36 3774349 90415 92%
c - 206.31 549 60 29 6153 336036 23282  6% 36 3774349 90415 92%
c # 207.82 549 57 29 6280 351062 31588  6% 36 3774349 90415 92%
c - 210.15 548 55 30 6282 359227 20575  6% 36 3774349 90415 92%
c B 212.32 548 52 30 6365 378065 33000  6% 36 3774349 90415 92%
c - 214.40 548 52 31 6750 383192 20773  6% 36 3774349 90415 92%
c W 227.23 548 60 31 7204 406067 33996  6% 37 3774349 90415 92%
c 
c  seconds    reductions       redundant    irredundant
c           MB     restarts           trail         variables
c            level      conflicts         glue           remaining
c 
c - 228.90 548 61 32 7217 407929 19604  6% 37 3774349 90415 92%
c - 233.43 548 68 33 7475 433440 20166  6% 37 3774349 90415 92%
c F 233.64 548 68 33 7479 435068 21017  6% 37 3774349 90415 92%
c - 241.82 548 62 34 7590 459729 21158  7% 38 3774349 90415 92%
c B 242.44 548 61 34 7616 465071 24346  7% 38 3774349 90415 92%
c - 246.89 548 64 35 13121 486785 16254  7% 43 3774349 90415 92%
c W 254.80 548 64 35 15453 496072 19049  7% 44 3774349 90415 92%
c } 256.86 548 83 35 15472 511012 30474  7% 44 3774349 90415 92%
c [ 256.86 548 3019 35 15472 511012 30474 18% 75 3774349 90415 92%
c - 259.45 550 3196 36 15472 514618 21384 19% 77 3774349 90415 92%
c W 273.28 550 3631 36 15472 528077 31004 21% 80 3774349 90415 92%
c - 277.30 555 3075 37 15475 543221 27075 19% 80 3774349 90415 92%
c I 280.45 555 2536 37 15486 561078 40318 17% 79 3774349 90415 92%
c - 284.61 560 5994 38 15488 572596 29461 21% 99 3774349 90415 92%
c B 288.78 560 5683 38 15501 595087 46622 21% 99 3774349 90415 92%
c - 295.98 556 5751 39 15502 602745 30607 22% 97 3774349 90415 92%
c W 309.94 556 4389 39 15509 630088 53164 21% 93 3774349 90415 92%
c - 312.38 557 4498 40 15510 633667 33704 22% 93 3774349 90415 92%
c s 312.82 557 4498 40 15510 633667 33592 22% 93 3774349 90415 92%
c w 316.55 557 4498 40 15510 633667 33579 22% 93 3774349 90415 92%
c 
c  seconds      reductions        redundant    irredundant
c           MB        restarts           trail         variables
c             level        conflicts         glue           remaining
c 
c - 323.36 555 4247 41 15525 665363 36262 23% 86 3774349 90415 92%
c O 323.43 555 4216 41 15525 666089 36757 23% 86 3774349 90415 92%
c - 332.28 550 3055 42 15534 697831 32563 18% 72 3774349 90415 92%
c B 332.94 550 2898 42 15534 703093 36261 17% 70 3774349 90415 92%
c - 337.89 556 3373 43 15535 731072 31919 24% 69 3774349 90415 92%
c W 348.25 556 3806 43 15536 741095 39154 26% 70 3774349 90415 92%
c - 357.79 560 5753 44 15536 765087 35486 29% 85 3774349 90415 92%
c I 360.10 560 4981 44 15536 780096 46456 26% 90 3774349 90415 92%
c - 363.83 562 8127 45 15536 799874 33002 28% 113 3774349 90415 92%
c B 368.10 562 9211 45 15546 820099 48564 31% 119 3774349 90415 92%
c - 372.45 562 7949 46 15551 835437 36664 29% 115 3774349 90415 92%
c W 388.66 562 6362 46 15565 861100 54215 25% 100 3774349 90415 92%
c - 393.01 557 6008 47 15567 871770 36716 24% 106 3774349 90415 92%
c O 397.78 557 5625 47 15577 903102 60343 24% 98 3774349 90415 92%
c - 400.06 556 5313 48 15581 908877 36907 23% 95 3774349 90415 92%
c B 405.78 556 3686 48 15597 946105 64139 17% 77 3774349 90415 92%
c - 407.99 553 3900 49 15597 946756 37610 18% 81 3774349 90415 92%
c - 436.61 585 3836 50 15599 985410 44711 24% 119 3774349 90415 92%
c W 450.52 585 3686 50 15599 990107 48984 24% 120 3774349 90415 92%
c ] 457.01 585 3630 50 15612 1023014 74683 25% 110 3774349 90415 92%
c 
c  seconds    reductions         redundant    irredundant
c           MB      restarts            trail         variables
c            level        conflicts         glue           remaining
c 
c { 457.01 585 83 50 15612 1023014 74683  7% 44 3774349 90415 92%
c - 458.79 560 83 51 15615 1024836 42905  7% 44 3774349 90415 92%
c # 459.79 560 79 51 15642 1035108 49903  7% 44 3774349 90415 92%
c - 468.21 552 70 52 15668 1065034 39277  6% 43 3774349 90415 92%
c s 468.60 552 70 52 15668 1065034 38834  6% 43 3774349 90415 92%
c w 472.24 552 70 52 15668 1065034 38820  6% 43 3774349 90415 92%
c B 474.70 552 66 52 15724 1081110 49173  6% 42 3774349 90415 92%
c - 479.72 554 115 53 20372 1106005 42364  6% 44 3774349 90415 92%
c W 494.86 554 147 53 23837 1128112 59861  6% 46 3774349 90415 92%
c - 499.33 556 170 54 26505 1147749 45279  6% 47 3774349 90415 92%
c F 506.98 556 195 54 27788 1176114 68271  7% 47 3774349 90415 92%
c - 510.27 555 175 55 27792 1190266 46149  7% 46 3774349 90415 92%
c B 516.00 555 137 55 27792 1225120 75184  7% 44 3774349 90415 92%
c - 518.57 554 134 56 27850 1233557 47391  7% 44 3774349 90415 92%
c W 541.06 554 103 56 27853 1275121 76204  7% 43 3774349 90415 92%
c - 542.86 553 102 57 27853 1277622 42821  7% 43 3774349 90415 92%
c - 550.01 553 81 58 27860 1322459 44969  7% 42 3774349 90415 92%
c # 550.47 553 79 58 27910 1326124 47547  7% 42 3774349 90415 92%
c - 556.81 554 67 59 27913 1368069 49042  7% 41 3774349 90415 92%
c B 558.23 554 65 59 27918 1378125 57593  7% 41 3774349 90415 92%
c 
c  seconds    reductions         redundant    irredundant
c           MB      restarts            trail         variables
c            level        conflicts         glue           remaining
c 
c - 567.13 554 68 60 28625 1414453 48667  7% 41 3774349 90415 92%
c W 583.92 554 64 60 28675 1431126 59218  7% 40 3774349 90415 92%
c - 588.74 552 58 61 28727 1461610 42797  7% 40 3774349 90415 92%
c F 591.69 552 54 61 28817 1485128 57557  7% 40 3774349 90415 92%
c - 599.62 553 54 62 28824 1509539 46215  7% 39 3774349 90415 92%
c } 599.91 553 54 62 28824 1511645 47561  7% 39 3774349 90415 92%
c ? 599.91 553 54 62 28824 1511645 47561  7% 39 3774349 90415 92%
c 
c --- [ result ] -------------------------------------------------------------
c 
c UNKNOWN
c 
c --- [ run-time profiling ] -------------------------------------------------
c 
c process time taken by individual solving procedures
c (percentage relative to process time for solving)
c 
c       452.06   75.67% search
c       182.99   30.63% stable
c       151.24   25.32% unstable
c       145.33   24.33% simplify
c       117.80   19.72% walk
c        37.60    6.29% ternary
c        28.42    4.76% elim
c        19.53    3.27% vivify
c        16.23    2.72% probe
c         5.48    0.92% subsume
c         2.51    0.42% parse
c         0.03    0.01% lucky
c   =================================
c       597.39   99.58% solve
c 
c last line shows process time for solving
c (percentage relative to total process time)
c 
c --- [ statistics ] ---------------------------------------------------------
c 
c chronological:            256173        16.95 %  of conflicts
c conflicts:               1511645      2530.40    per second
c decisions:               4525483      7575.39    per second
c eliminated:                 6545         6.64 %  of all variables
c fixed:                      1600         1.62 %  of all variables
c learned:                 1496436        98.99 %  per conflict
c learned_lits:          205452314       100.00 %  learned literals
c minimized:                     0         0.00 %  learned literals
c shrunken:               79446441        38.67 %  learned literals
c minishrunken:            6173503         3.00 %  learned literals
c propagations:          455471670         0.76 M  per second
c reduced:                 1044965        69.13 %  per conflict
c rephased:                     54     27993.43    interval
c restarts:                  28824        52.44    interval
c stabilizing:                   5        45.12 %  of conflicts
c subsumed:                 401367         3.43 %  of all clauses
c strengthened:              13544         0.12 %  of all clauses
c vivified:                     67         0.00 %  of all clauses
c walked:                       17     88920.29    interval
c weakened:                 576952         3.04    average size
c 
c seconds are measured in process time for solving
c 
c --- [ resources ] ----------------------------------------------------------
c 
c total process time since initialization:       599.91    seconds
c total real time since initialization:          600.00    seconds
c maximum resident set size of process:          701.16    MB
c 
c --- [ shutting down ] ------------------------------------------------------
c 
c exit 0
